8586
15, 5, 6, 25, 4, 43, 33, 51, 11, 52, 14, 13, 27, 28, 12, 26, 47, 29, 30, 7, 2, 42, 21, 17, 18, 3, 41, 8, 9, 10, 19, 45, 32, 1, 49, 22, 31, 23, 50, 20, 16, 44, 46, 48, 24, 40, 39, 35, 36, 34, 37, 38
